3217413742534488234507,8,1,2,012,1,1,2,014,6,1,2,013,14,1,2,010,15,1,2,03,3,1,2,03,15,1,2,07,13,1,2,015,4,1,2,04,15,1,2,05,4,1,2,04,7,1,2,04,1,1,2,014,15,1,2,015,15,1,2,09,13,1,2,011,11,1,2,05,9,1,2,05,3,1,2,03,1,1,2,03,7,1,2,010,7,1,2,011,10,1,2,011,15,1,2,09,7,1,2,02,2,1,2,011,3,1,2,05,15,1,2,015,3,1,2,014,3,1,2,07,13,1,2,010,6,1,2,012,6,1,2,010,8,1,2,010,11,1,2,06,11,1,2,011,7,1,2,09,4,1,2,07,12,1,2,04,1,1,2,014,9,1,2,013,7,1,2,08,9,1,2,015,3,1,2,01,3,1,2,014,8,1,2,010,11,1,2,09,14,1,2,010,8,1,2,01,2,1,2,0